
Gurobi 11.0.3 (linux64) logging started Thu Apr 16 05:36:57 2026

Set parameter LogFile to value "tree/results/ceva/ceva_depth-3_run-4/Full MIP/LogFile_FullModel.txt"
Gurobi Optimizer version 11.0.3 build v11.0.3rc0 (linux64 - "CentOS Linux 7 (Core)")

CPU model: Intel(R) Xeon(R) Platinum 8260 CPU @ 2.40GHz, instruction set [SSE2|AVX|AVX2|AVX512]
Thread count: 96 physical cores, 192 logical processors, using up to 32 threads

Optimize a model with 104189 rows, 72955 columns and 1636277 nonzeros
Model fingerprint: 0xa1994652
Model has 10368 general constraints
Variable types: 41714 continuous, 31241 integer (31241 binary)
Coefficient statistics:
  Matrix range     [8e-04, 1e+04]
  Objective range  [8e-04, 1e+04]
  Bounds range     [1e+00, 1e+03]
  RHS range        [1e-04, 1e+03]

User MIP start produced solution with objective -24499.2 (0.54s)
Loaded user MIP start with objective -24499.2

Presolve added 10360 rows and 31104 columns
Presolve time: 2.64s
Presolved: 114549 rows, 104059 columns, 1698585 nonzeros
Presolved model has 31104 SOS constraint(s)
Variable types: 41714 continuous, 62345 integer (62345 binary)

Deterministic concurrent LP optimizer: primal simplex, dual simplex, and barrier
Showing barrier log only...

Root relaxation presolved: 114549 rows, 104059 columns, 1698585 nonzeros

Root barrier log...

Ordering time: 0.07s

Barrier statistics:
 Dense cols : 112
 AA' NZ     : 1.682e+06
 Factor NZ  : 5.330e+06 (roughly 140 MB of memory)
 Factor Ops : 2.727e+08 (less than 1 second per iteration)
 Threads    : 30

                  Objective                Residual
Iter       Primal          Dual         Primal    Dual     Compl     Time
   0  -8.82537300e+04  1.00015594e+09  1.50e+04 1.97e-14  7.97e+05     6s
   1  -4.66471760e+04  1.55155348e+09  5.26e+03 3.00e+01  2.65e+05     6s
   2  -1.72019910e+04  1.53516304e+09  5.42e+02 3.51e+00  3.20e+04     7s
   3  -1.26900751e+04  8.91095680e+08  5.26e+01 3.88e-01  5.53e+03     7s
   4  -2.52516169e+03  1.40565307e+08  3.83e+00 3.76e-02  6.77e+02     8s
   5  -2.55534933e+02  1.69726880e+07  2.25e-01 3.71e-03  7.61e+01     8s
   6  -2.50774198e+01  1.73142957e+06  2.26e-02 3.72e-04  7.60e+00     8s
   7  -2.02897110e+00  1.77677217e+05  2.42e-03 3.82e-05  7.79e-01     8s
   8   3.04388699e-01  2.27296020e+04  3.60e-04 4.88e-06  9.96e-02     9s
   9   9.00366850e-01  5.03625670e+03  3.57e-05 1.05e-06  2.21e-02     9s
  10   8.93428650e-01  7.66228945e+02  3.54e-06 1.56e-07  3.36e-03     9s
  11   9.89037785e-01  7.84211634e+01  3.51e-07 1.56e-08  3.40e-04    10s
  12   9.98903778e-01  8.74829155e+00  3.50e-08 1.56e-09  3.40e-05    10s
  13   9.99890374e-01  1.78188380e+00  3.47e-09 1.56e-10  3.43e-06    10s
  14   9.99989037e-01  1.07818839e+00  3.47e-10 1.56e-11  3.43e-07    11s
  15   9.99998904e-01  1.00789003e+00  3.46e-11 1.56e-12  3.46e-08    11s
  16   9.99999890e-01  1.00078900e+00  3.69e-12 1.56e-13  3.46e-09    12s
  17   9.99999989e-01  1.00007890e+00  6.54e-13 1.56e-14  3.46e-10    12s
  18   9.99999999e-01  1.00000789e+00  4.33e-13 1.42e-14  3.46e-11    13s
  19   1.00000000e+00  1.00000079e+00  4.48e-13 1.56e-16  3.46e-12    14s
  20   1.00000000e+00  1.00000008e+00  4.48e-13 1.56e-17  3.46e-13    14s
  21   1.00000000e+00  1.00000001e+00  4.41e-13 3.47e-18  3.46e-14    15s

Barrier solved model in 21 iterations and 14.58 seconds (8.09 work units)
Optimal objective 1.00000000e+00


Root crossover log...

    4707 DPushes remaining with DInf 0.0000000e+00                15s
       0 DPushes remaining with DInf 0.0000000e+00                15s

   39369 PPushes remaining with PInf 0.0000000e+00                15s
    4829 PPushes remaining with PInf 0.0000000e+00                15s
       0 PPushes remaining with PInf 0.0000000e+00                16s

  Push phase complete: Pinf 0.0000000e+00, Dinf 0.0000000e+00     16s


Root simplex log...

Iteration    Objective       Primal Inf.    Dual Inf.      Time
   39373    1.0000000e+00   0.000000e+00   0.000000e+00     16s
   39373    1.0000000e+00   0.000000e+00   0.000000e+00     17s
Concurrent spin time: 0.85s

Solved with barrier

Root relaxation: objective 1.000000e+00, 39373 iterations, 13.34 seconds (6.27 work units)
Total elapsed time = 57.65s (DegenMoves)

    Nodes    |    Current Node    |     Objective Bounds      |     Work
 Expl Unexpl |  Obj  Depth IntInf | Incumbent    BestBd   Gap | It/Node Time

     0     0    1.00000    0 9312 -24499.212    1.00000   100%     -   58s
     0     2    1.00000    0 9312 -24499.212    1.00000   100%     -  346s
H    1     4                    -24499.21216    1.00000   100%  4799  551s
     3     8    1.00000    2 9310 -24499.212    1.00000   100%  4872  678s
     7    16    1.00000    3 9309 -24499.212    1.00000   100%  6415  829s
    15    32    1.00000    4 7859 -24499.212    1.00000   100%  5736 1292s
    31    64    1.00000    5 7779 -24499.212    1.00000   100%  9855 1310s
H   35    64                    -24499.21216    1.00000   100%  8733 1310s
H   40    64                    -24499.21214    1.00000   100%  7687 1310s
H   51    64                       0.7754630    1.00000  29.0%  6101 1311s
    63    96    1.00000    6 7554    0.77546    1.00000  29.0%  5009 1546s
    95   128    1.00000    7 7526    0.77546    1.00000  29.0%  3435 1701s
   159   192    1.00000    9 7592    0.77546    1.00000  29.0%  2148 1800s
   191   255    1.00000   10 7631    0.77546    1.00000  29.0%  1815 1807s
   254   287    1.00000   12 7684    0.77546    1.00000  29.0%  1413 2385s
   286   576    1.00000   13 7708    0.77546    1.00000  29.0%  1278 2561s
   575   608    1.00000   25 8279    0.77546    1.00000  29.0%  1005 3600s

Explored 607 nodes (640306 simplex iterations) in 3600.58 seconds (6229.75 work units)
Thread count was 32 (of 192 available processors)

Solution count 5: 0.775463 -24499.2 -24499.2 ... -24499.2

Time limit reached
Best objective 7.754629629636e-01, best bound 1.000000000000e+00, gap 28.9552%

User-callback calls 1532497, time in user-callback 8.68 sec
